\ENCODING=ISO-8859-1
\Problem name: 

Minimize
 obj1: x1 + x2 + x3 + x4 + x5 + x6 + x7 + x8 + x9 + x10 + x11 + x12 + x13 + x14
       + x15 + x16 + x17 + x18 + x19 + x20 + x21 + x22 + x23 + x24 + x25 + x26
       + x27 + x28 + x29 + x30 + x31 + x32 + 2 x33 + 2 x34 + 2 x35 + 2 x36
       + 2 x37 + 2 x38 + 2 x39 + 2 x40 + 2 x41 + 2 x42 + 2 x43 + 2 x44 + 2 x45
       + 2 x46 + 2 x47 + 2 x48 + 2 x49 + 2 x50 + 2 x51 + 2 x52 + 2 x53 + 2 x54
       + 2 x55 + 2 x56 + 2 x57 + 2 x58 + 2 x59 + 3 x60 + 3 x61 + 3 x62 + 3 x63
       + 3 x64 + 3 x65 + 3 x66 + 3 x67 + 3 x68 + 3 x69 + 3 x70 + 3 x71 + 3 x72
       + 3 x73 + 3 x74 + 3 x75 + 3 x76 + 3 x77 + 3 x78 + 3 x79 + 3 x80 + 3 x81
       + 3 x82 + 3 x83 + 3 x84 + 3 x85 + 3 x86 + 3 x87 + 3 x88 + 3 x89 + 3 x90
       + 3 x91 + 3 x92 + 3 x93 + 3 x94 + 4 x95 + 4 x96 + 4 x97 + 4 x98 + 4 x99
       + 4 x100 + 4 x101 + 4 x102 + 4 x103 + 4 x104 + 4 x105 + 4 x106 + 4 x107
       + 4 x108 + 4 x109 + 4 x110 + 4 x111 + 4 x112 + 4 x113 + 4 x114 + 4 x115
       + 4 x116 + 4 x117 + 4 x118 + 5 x119 + 5 x120 + 5 x121 + 5 x122 + 5 x123
       + 5 x124 + 5 x125 + 5 x126 + 5 x127 + 5 x128 + 5 x129 + 5 x130 + 5 x131
       + 5 x132 + 5 x133 + 5 x134 + 5 x135 + 5 x136 + 5 x137 + 5 x138 + 5 x139
       + 5 x140 + 5 x141 + 5 x142 + 5 x143 + 5 x144 + 5 x145 + 5 x146 + 5 x147
       + 5 x148 + 5 x149 + 5 x150 + 5 x151 + 5 x152 + 5 x153 + 5 x154 + 5 x155
       + 5 x156 + 5 x157 + 5 x158 + 5 x159 + 5 x160 + 6 x161 + 6 x162 + 6 x163
       + 6 x164 + 6 x165 + 6 x166 + 6 x167 + 6 x168 + 6 x169 + 6 x170 + 6 x171
       + 6 x172 + 6 x173 + 6 x174 + 6 x175 + 6 x176 + 6 x177 + 6 x178 + 6 x179
       + 6 x180 + 6 x181 + 6 x182 + 6 x183 + 6 x184 + 6 x185 + 6 x186 + 6 x187
       + 7 x188 + 7 x189 + 7 x190 + 7 x191 + 7 x192 + 7 x193 + 7 x194 + 7 x195
       + 7 x196 + 7 x197 + 7 x199 + 7 x200 + 7 x201 + 7 x202 + 7 x203 + 7 x204
       + 7 x205 + 7 x206 + 7 x207 + 7 x208 + 7 x209 + 7 x210 + 7 x211 + 7 x212
       + 7 x214 + 7 x216 + 8 x217 + 8 x218 + 8 x219 + 8 x221 + 8 x222 + 8 x224
       + 8 x225 + 8 x226 + 8 x227 + 8 x228 + 8 x229 + 8 x231 + 8 x232 + 8 x234
       + 8 x235 + 8 x236 + 8 x237 + 8 x239 + 8 x240 + 8 x241 + 8 x242 + 8 x244
       + 8 x245 + 8 x246 + 9 x249 + 9 x250 + 9 x251 + 9 x252 + 9 x254 + 9 x255
       + 9 x256 + 9 x262 + 9 x263 + 9 x267 + 10 x274 + 10 x275 + 10 x276
       + 10 x278 + 10 x279 + 10 x281 + 10 x290 + 10 x291 + 10 x292 + 10 x301
       + 11 x313 + 11 x319 + 11 x320 + 11 x322 + 11 x330 + 11 x332 + 11 x334
       + 12 x345 + 12 x347 + 12 x355 + 13 x357 + 14 x389 + 14 x390
Subject To
 c1:   x3 + x21 + x33 + x34 + x49 + x68 + x77 + x87 + x95 + x103 + x106 + x111
       + x136 + x166 + x178 + x190 + x202 + x250 + x254 + x345 >= 1
 c2:   x45 + x54 + x61 + x74 + x100 + x119 + x120 + x156 + x161 + x175 + x244
       + x345 >= 1
 c3:   x9 + x32 + x44 + x78 + x93 + x109 + x124 + x140 + x160 + x163 + x208
       + x222 + x231 + x235 + x279 + x319 >= 1
 c4:   x33 + x39 + x56 + x66 + x84 + x105 + x143 + x184 + x249 + x250 + x301
       >= 1
 c5:   x3 + x23 + x34 + x35 + x79 + x98 + x106 + x107 + x116 + x120 + x122
       + x128 + x130 + x132 + x148 + x221 + x226 + x357 >= 1
 c6:   x13 + x43 + x55 + x56 + x88 + x107 + x119 + x161 + x180 + x191 + x228
       + x244 >= 1
 c7:   x7 + x37 + x41 + x55 + x76 + x130 + x155 + x219 + x221 + x290 >= 1
 c8:   x10 + x16 + x26 + x49 + x65 + x83 + x136 + x194 + x195 + x212 + x235
       + x313 >= 1
 c9:   x6 + x9 + x28 + x38 + x39 + x46 + x86 + x103 + x120 + x123 + x164 + x173
       + x178 + x192 + x219 + x227 + x274 >= 1
 c10:  x39 + x121 + x126 + x127 + x138 + x140 + x143 + x188 + x196 + x204
       + x206 + x219 + x237 + x251 + x389 >= 1
 c11:  x10 + x14 + x16 + x29 + x34 + x45 + x51 + x64 + x77 + x101 + x104 + x122
       + x165 + x193 + x194 + x212 + x218 + x219 + x278 >= 1
 c12:  x12 + x15 + x22 + x26 + x103 + x120 + x133 + x137 + x218 + x226 + x256
       + x262 >= 1
 c13:  x4 + x14 + x19 + x57 + x86 + x87 + x120 + x139 + x157 + x164 + x166
       + x196 + x222 + x249 + x251 + x255 + x279 >= 1
 c14:  x9 + x10 + x14 + x33 + x37 + x53 + x102 + x108 + x120 + x124 + x179
       + x183 + x204 + x229 + x292 + x330 >= 1
 c15:  x4 + x51 + x59 + x73 + x97 + x104 + x159 + x185 + x187 + x208 + x210
       + x219 + x232 + x301 + x347 >= 1
 c16:  x23 + x44 + x68 + x88 + x90 + x99 + x104 + x109 + x123 + x128 + x138
       + x142 + x201 + x217 + x390 >= 1
 c17:  x13 + x15 + x130 + x151 + x159 + x232 + x241 >= 1
 c18:  x8 + x10 + x27 + x96 + x103 + x105 + x108 + x133 + x142 + x152 + x171
       + x182 + x185 + x186 + x209 + x235 >= 1
 c19:  x4 + x17 + x23 + x36 + x49 + x70 + x101 + x108 + x111 + x129 + x149
       + x181 + x205 + x291 + x357 >= 1
 c20:  x3 + x10 + x20 + x33 + x58 + x62 + x68 + x98 + x110 + x120 + x124 + x126
       + x141 + x211 + x245 + x262 + x345 >= 1
 c21:  x35 + x40 + x64 + x76 + x103 + x106 + x121 + x147 + x209 + x225 + x231
       + x235 + x262 + x275 + x281 >= 1
 c22:  x29 + x53 + x107 + x126 + x136 + x154 + x228 + x242 + x263 + x274 + x320
       >= 1
 c23:  x2 + x32 + x36 + x43 + x96 + x98 + x104 + x105 + x110 + x122 + x175
       + x183 + x195 + x218 + x245 + x313 >= 1
 c24:  x4 + x14 + x60 + x100 + x114 + x115 + x165 + x189 + x214 + x239 + x252
       + x279 + x301 >= 1
 c25:  x18 + x24 + x44 + x46 + x54 + x113 + x121 + x147 + x157 + x163 + x174
       + x176 + x177 + x179 + x224 + x229 + x251 + x252 + x275 + x290 + x313
       + x319 >= 1
 c26:  x4 + x5 + x13 + x42 + x47 + x60 + x64 + x70 + x79 + x124 + x161 + x165
       + x279 + x313 >= 1
 c27:  x6 + x10 + x25 + x44 + x48 + x58 + x134 + x154 + x166 + x196 + x235
       + x320 >= 1
 c28:  x2 + x5 + x25 + x75 + x85 + x113 + x130 + x137 + x144 + x146 + x172
       + x229 + x249 + x254 + x255 + x347 + x389 >= 1
 c29:  x25 + x35 + x66 + x98 + x101 + x129 + x143 + x181 + x185 + x205 + x207
       + x246 + x274 + x322 + x389 >= 1
 c30:  x23 + x28 + x39 + x43 + x53 + x62 + x82 + x98 + x107 + x110 + x133
       + x174 + x194 + x217 + x237 >= 1
 c31:  x60 + x63 + x71 + x84 + x97 + x123 + x124 + x151 + x188 + x190 + x226
       + x357 >= 1
 c32:  x5 + x19 + x28 + x55 + x66 + x134 + x148 + x161 + x169 + x171 + x207
       + x217 + x236 + x389 >= 1
 c33:  x2 + x7 + x36 + x40 + x60 + x80 + x99 + x103 + x158 + x165 + x242 >= 1
 c34:  x2 + x20 + x30 + x75 + x148 + x175 + x192 + x202 + x313 >= 1
 c35:  x36 + x67 + x70 + x94 + x127 + x130 + x133 + x136 + x176 + x177 + x190
       + x203 + x242 + x279 >= 1
 c36:  x7 + x39 + x41 + x51 + x73 + x76 + x94 + x122 + x139 + x165 + x179
       + x218 + x235 + x246 + x274 + x334 >= 1
 c37:  x19 + x46 + x140 + x180 >= 1
 c38:  x18 + x44 + x122 + x163 + x171 + x189 + x203 + x205 + x236 >= 1
 c39:  x2 + x19 + x28 + x31 + x37 + x55 + x61 + x63 + x73 + x82 + x85 + x135
       + x138 + x178 + x194 + x210 + x218 + x232 + x244 + x263 + x278 >= 1
 c40:  x2 + x62 + x69 + x84 + x95 + x100 + x108 + x147 + x155 + x190 + x199
       + x224 + x345 >= 1
 c41:  x2 + x15 + x45 + x59 + x123 + x136 + x138 + x153 + x181 + x201 + x203
       + x227 + x256 + x290 + x355 >= 1
 c42:  x5 + x7 + x38 + x44 + x81 + x83 + x121 + x138 + x144 + x194 + x197
       + x240 + x244 + x290 >= 1
 c43:  x22 + x105 + x109 + x111 + x120 + x142 + x186 + x232 + x332 + x345 >= 1
 c44:  x27 + x40 + x55 + x74 + x127 + x245 + x320 + x355 >= 1
 c45:  x5 + x7 + x56 + x60 + x77 + x149 + x157 + x169 + x221 + x252 + x255
       + x322 >= 1
 c46:  x28 + x42 + x70 + x72 + x75 + x141 + x156 + x171 + x194 + x205 + x228
       + x263 + x330 >= 1
 c47:  x17 + x28 + x66 + x68 + x85 + x117 + x142 + x151 + x176 + x206 + x221
       + x235 + x252 + x263 + x313 + x334 >= 1
 c48:  x40 + x65 + x75 + x77 + x80 + x89 + x101 + x113 + x128 + x190 + x195
       + x200 + x240 >= 1
 c49:  x10 + x32 + x33 + x42 + x49 + x50 + x61 + x66 + x91 + x95 + x136 + x184
       + x187 + x242 + x290 + x320 >= 1
 c50:  x1 + x10 + x13 + x21 + x23 + x33 + x60 + x92 + x100 + x165 + x189 + x224
       + x239 + x281 + x347 >= 1
 c51:  x17 + x27 + x37 + x42 + x59 + x66 + x68 + x70 + x78 + x90 + x112 + x128
       + x130 + x131 + x186 + x219 + x225 + x250 + x357 >= 1
 c52:  x6 + x33 + x52 + x126 + x129 + x139 + x142 + x155 + x162 + x170 + x180
       + x193 + x217 + x237 + x267 + x322 + x332 + x347 >= 1
 c53:  x35 + x41 + x46 + x64 + x68 + x93 + x105 + x146 + x148 + x222 + x240
       + x241 + x252 + x330 >= 1
 c54:  x3 + x67 + x69 + x86 + x97 + x107 + x119 + x145 + x186 + x197 + x203
       + x208 + x210 + x242 + x249 >= 1
 c55:  x6 + x11 + x28 + x60 + x62 + x64 + x68 + x202 + x256 + x389 >= 1
 c56:  x4 + x12 + x81 + x99 + x131 + x135 + x136 + x165 + x190 + x319 >= 1
 c57:  x5 + x60 + x61 + x85 + x127 + x138 + x160 + x161 + x171 + x217 + x228
       + x262 + x330 >= 1
 c58:  x35 + x43 + x44 + x67 + x158 + x161 + x175 + x201 + x202 + x246 + x332
       >= 1
 c59:  x4 + x5 + x21 + x26 + x35 + x39 + x76 + x137 + x224 >= 1
 c60:  x2 + x18 + x19 + x35 + x37 + x72 + x106 + x119 + x127 + x157 + x166
       + x167 + x169 + x177 + x184 + x228 + x236 + x241 + x267 + x276 + x279
       >= 1
 c61:  x5 + x24 + x55 + x75 + x103 + x108 + x138 + x168 + x177 + x184 + x209
       + x255 + x274 + x275 + x278 >= 1
 c62:  x29 + x45 + x61 + x63 + x64 + x66 + x168 + x188 + x203 >= 1
 c63:  x3 + x4 + x21 + x55 + x109 + x123 + x125 + x132 + x149 + x171 + x234
       >= 1
 c64:  x14 + x25 + x69 + x101 + x127 + x135 + x148 + x171 + x174 + x191 + x197
       + x207 + x214 + x218 + x347 >= 1
 c65:  x20 + x39 + x46 + x48 + x77 + x87 + x115 + x119 + x154 + x169 + x170
       + x177 + x197 + x203 + x254 + x355 >= 1
 c66:  x15 + x31 + x53 + x95 + x122 + x138 + x148 + x167 + x170 + x193 + x196
       + x206 + x209 + x229 + x357 >= 1
 c67:  x6 + x8 + x14 + x19 + x26 + x71 + x95 + x109 + x129 + x147 + x149 + x167
       + x207 + x232 + x240 >= 1
 c68:  x4 + x18 + x28 + x39 + x61 + x66 + x72 + x78 + x105 + x114 + x156 + x160
       + x161 + x174 + x218 + x219 + x225 + x226 + x262 + x322 >= 1
 c69:  x13 + x57 + x80 + x104 + x114 + x182 + x188 + x232 + x241 + x250 + x389
       >= 1
 c70:  x15 + x21 + x41 + x46 + x47 + x56 + x65 + x100 + x101 + x130 + x133
       + x141 + x154 + x208 + x244 + x345 >= 1
 c71:  x2 + x40 + x42 + x49 + x108 + x111 + x116 + x124 + x129 + x170 + x182
       + x199 + x204 >= 1
 c72:  x65 + x71 + x77 + x81 + x90 + x97 + x170 + x177 + x181 + x199 + x200
       + x201 + x206 + x222 + x279 + x313 >= 1
 c73:  x4 + x8 + x26 + x39 + x50 + x67 + x88 + x99 + x107 + x114 + x132 + x151
       + x163 + x169 + x173 + x194 + x211 + x250 + x276 + x291 >= 1
 c74:  x13 + x40 + x51 + x61 + x62 + x91 + x192 + x218 + x232 + x319 >= 1
 c75:  x4 + x20 + x35 + x75 + x90 + x95 + x129 + x150 + x207 + x255 >= 1
 c76:  x18 + x38 + x94 + x103 + x129 + x146 + x166 + x182 + x188 + x191 + x246
       + x249 >= 1
 c77:  x1 + x10 + x15 + x17 + x23 + x37 + x41 + x66 + x126 + x140 + x162 + x178
       + x180 + x242 >= 1
 c78:  x5 + x9 + x41 + x70 + x80 + x81 + x83 + x140 + x166 + x174 + x178 + x180
       + x188 + x200 + x276 + x389 >= 1
 c79:  x21 + x49 + x63 + x68 + x73 + x125 + x128 + x164 + x202 + x219 + x227
       + x274 + x357 >= 1
 c80:  x31 + x61 + x67 + x71 + x115 + x142 + x153 + x186 + x227 + x237 + x278
       >= 1
 c81:  x24 + x30 + x54 + x99 + x113 + x120 + x121 + x125 + x128 + x160 + x163
       + x189 + x196 + x205 + x225 + x227 + x236 + x241 + x249 + x256 + x275
       + x345 + x389 >= 1
 c82:  x1 + x63 + x98 + x117 + x148 + x181 + x190 + x192 + x254 + x281 + x313
       >= 1
 c83:  x5 + x34 + x45 + x73 + x119 + x122 + x163 + x167 + x191 + x203 + x228
       + x290 + x334 + x355 >= 1
 c84:  x9 + x35 + x66 + x86 + x91 + x99 + x141 + x161 + x173 + x188 + x197
       + x234 + x245 + x320 + x357 >= 1
 c85:  x2 + x14 + x17 + x26 + x62 + x75 + x96 + x102 + x130 + x132 + x137
       + x172 + x217 + x228 + x235 + x292 >= 1
 c86:  x14 + x25 + x27 + x36 + x38 + x49 + x52 + x58 + x65 + x68 + x76 + x93
       + x134 + x146 + x155 + x168 + x189 + x249 + x251 + x252 + x292 >= 1
 c87:  x7 + x13 + x63 + x65 + x75 + x104 + x114 + x117 + x141 + x159 + x167
       + x173 + x175 + x191 + x204 + x251 + x275 + x279 >= 1
 c88:  x8 + x11 + x33 + x34 + x56 + x96 + x115 + x163 + x201 + x202 + x217
       + x262 + x278 + x319 + x357 >= 1
 c89:  x9 + x10 + x14 + x30 + x40 + x60 + x87 + x92 + x95 + x101 + x110 + x119
       + x129 + x134 + x145 + x170 + x176 + x181 + x188 + x214 + x276 + x319
       >= 1
 c90:  x12 + x20 + x65 + x73 + x82 + x102 + x120 + x154 + x167 + x180 + x196
       + x217 + x221 + x240 >= 1
 c91:  x3 + x5 + x83 + x84 + x96 + x102 + x120 + x139 + x155 + x162 + x179
       + x204 + x222 >= 1
 c92:  x11 + x15 + x34 + x40 + x89 + x114 + x124 + x153 + x194 + x206 + x207
       + x224 + x251 >= 1
 c93:  x2 + x75 + x105 + x112 + x163 + x189 + x216 + x229 + x263 + x390 >= 1
 c94:  x38 + x43 + x81 + x133 + x135 + x150 + x169 + x173 + x188 + x191 + x278
       >= 1
 c95:  x6 + x14 + x37 + x62 + x64 + x65 + x136 + x138 + x161 + x166 + x200
       + x251 + x357 >= 1
 c96:  x3 + x9 + x11 + x16 + x29 + x41 + x54 + x78 + x81 + x100 + x128 + x150
       + x168 + x202 + x234 >= 1
 c97:  x97 + x103 + x121 + x206 + x252 + x263 + x274 + x275 + x292 + x319
       + x320 + x390 >= 1
 c98:  x35 + x45 + x69 + x97 + x99 + x109 + x145 + x186 + x200 + x241 + x389
       >= 1
 c99:  x21 + x89 + x107 + x200 + x205 + x218 + x250 + x278 + x279 + x319 + x334
       >= 1
 c100: x35 + x40 + x72 + x122 + x131 + x162 + x164 + x171 + x190 + x197 + x232
       + x239 + x274 + x322 >= 1
 c101: x35 + x56 + x61 + x106 + x116 + x124 + x125 + x140 + x146 + x153 + x194
       + x199 + x226 + x245 + x389 >= 1
 c102: x2 + x3 + x24 + x61 + x167 + x173 + x190 + x192 + x194 + x200 + x291
       + x313 >= 1
 c103: x14 + x43 + x89 + x95 + x131 + x152 + x189 + x208 + x219 + x225 + x228
       + x231 + x250 + x251 + x390 >= 1
 c104: x50 + x78 + x81 + x95 + x119 + x120 + x125 + x128 + x142 + x165 + x191
       + x203 + x212 + x224 + x236 + x237 + x279 >= 1
 c105: x19 + x34 + x57 + x59 + x71 + x74 + x79 + x83 + x114 + x123 + x131
       + x135 + x148 + x149 + x162 + x179 + x221 + x255 + x274 >= 1
 c106: x7 + x48 + x50 + x63 + x70 + x80 + x90 + x106 + x150 + x162 + x202 >= 1
 c107: x51 + x55 + x64 + x68 + x150 + x194 + x276 + x290 + x320 + x390 >= 1
 c108: x7 + x61 + x62 + x63 + x74 + x127 + x128 + x141 + x301 >= 1
 c109: x11 + x25 + x53 + x66 + x90 + x96 + x107 + x122 + x130 + x131 + x142
       + x152 + x234 + x236 + x255 + x357 >= 1
 c110: x12 + x22 + x71 + x79 + x106 + x121 + x123 + x140 + x224 + x292 + x320
       >= 1
 c111: x26 + x41 + x46 + x60 + x79 + x81 + x99 + x108 + x155 + x158 + x177
       + x182 + x214 + x224 + x227 + x244 + x262 + x275 + x291 >= 1
 c112: x5 + x11 + x33 + x38 + x63 + x97 + x121 + x131 + x156 + x165 + x194
       + x197 + x205 + x210 + x218 + x219 + x250 + x357 >= 1
 c113: x15 + x16 + x64 + x67 + x74 + x97 + x99 + x101 + x107 + x156 + x158
       + x188 + x193 + x219 + x313 >= 1
 c114: x17 + x53 + x69 + x114 + x134 + x149 + x163 + x192 + x193 + x217 + x219
       + x237 + x263 + x276 + x301 >= 1
 c115: x3 + x48 + x65 + x122 + x129 + x139 + x167 + x183 + x199 + x204 + x222
       + x227 + x279 >= 1
 c116: x6 + x31 + x69 + x86 + x121 + x142 + x144 + x158 + x195 + x199 + x207
       + x212 + x222 + x262 >= 1
 c117: x1 + x19 + x36 + x37 + x44 + x70 + x101 + x108 + x172 + x218 + x229
       + x255 + x281 >= 1
 c118: x2 + x17 + x106 + x141 + x144 + x165 + x170 + x189 + x203 + x217 + x221
       + x226 + x228 + x251 + x252 >= 1
 c119: x60 + x63 + x81 + x112 + x119 + x120 + x122 + x141 + x174 + x222 + x275
       >= 1
 c120: x37 + x44 + x46 + x50 + x54 + x63 + x104 + x127 + x139 + x161 + x195
       + x202 + x332 >= 1
 c121: x1 + x34 + x36 + x38 + x64 + x74 + x118 + x128 + x139 + x172 + x206
       + x208 + x241 >= 1
 c122: x1 + x8 + x21 + x25 + x40 + x43 + x44 + x96 + x98 + x101 + x126 + x153
       + x164 + x173 + x175 + x185 + x197 + x218 + x254 + x357 >= 1
 c123: x7 + x70 + x75 + x78 + x83 + x89 + x105 + x107 + x115 + x119 + x138
       + x146 + x182 + x190 + x219 + x234 + x334 >= 1
 c124: x17 + x45 + x50 + x52 + x54 + x98 + x101 + x102 + x121 + x168 + x180
       + x229 + x263 + x292 + x313 >= 1
 c125: x66 + x98 + x119 + x127 + x151 + x179 + x240 + x262 + x276 + x313 + x357
       >= 1
 c126: x22 + x61 + x65 + x74 + x80 + x106 + x132 + x146 + x203 + x204 + x231
       + x250 + x389 >= 1
 c127: x1 + x2 + x32 + x34 + x41 + x52 + x56 + x71 + x102 + x133 + x169 + x184
       + x190 + x196 + x275 + x320 >= 1
 c128: x33 + x54 + x90 + x118 + x123 + x126 + x140 + x153 + x192 + x211 + x226
       + x390 >= 1
 c129: x75 + x76 + x84 + x133 + x164 + x166 + x179 + x190 + x195 + x212 + x274
       + x276 + x291 + x322 >= 1
 c130: x1 + x4 + x8 + x37 + x58 + x106 + x120 + x150 + x170 + x224 + x240
       + x267 + x278 >= 1
 c131: x6 + x7 + x18 + x41 + x44 + x109 + x111 + x116 + x121 + x219 + x236 >= 1
 c132: x35 + x43 + x60 + x65 + x76 + x78 + x87 + x125 + x135 + x147 + x185
       + x192 + x274 >= 1
 c133: x4 + x34 + x54 + x91 + x106 + x126 + x153 + x232 + x237 >= 1
 c134: x63 + x76 + x87 + x158 + x161 + x169 + x193 + x234 >= 1
 c135: x3 + x12 + x31 + x47 + x84 + x85 + x95 + x131 + x132 + x144 + x145
       + x151 + x156 + x171 + x188 + x190 + x203 + x224 + x229 + x255 >= 1
 c136: x7 + x18 + x62 + x80 + x93 + x119 + x124 + x130 + x145 + x162 + x171
       + x175 + x191 + x196 + x204 + x225 + x278 + x320 >= 1
 c137: x2 + x6 + x55 + x73 + x90 + x97 + x131 + x137 + x143 + x177 + x199
       + x204 + x214 + x274 >= 1
 c138: x37 + x44 + x45 + x52 + x99 + x114 + x125 + x148 + x176 + x216 + x236
       + x267 >= 1
 c139: x4 + x39 + x63 + x114 + x127 + x128 + x136 + x144 + x192 + x205 + x225
       + x226 >= 1
 c140: x10 + x16 + x40 + x47 + x133 + x148 + x161 + x178 + x182 + x227 + x241
       + x274 + x291 + x390 >= 1
 c141: x8 + x20 + x67 + x72 + x75 + x160 + x211 + x226 + x239 + x275 >= 1
 c142: x10 + x60 + x101 + x107 + x116 + x120 + x152 + x167 + x168 + x176 + x178
       + x180 + x255 + x267 + x275 + x301 + x319 + x345 >= 1
 c143: x1 + x9 + x19 + x33 + x63 + x103 + x164 + x166 + x178 + x185 + x189
       + x195 + x221 + x245 + x389 >= 1
 c144: x16 + x17 + x29 + x47 + x49 + x68 + x94 + x177 + x228 + x254 + x355 >= 1
 c145: x11 + x79 + x128 + x175 + x189 + x190 + x195 + x249 + x347 >= 1
 c146: x11 + x24 + x59 + x61 + x76 + x133 + x201 + x208 + x224 + x290 + x330
       >= 1
 c147: x5 + x16 + x43 + x64 + x164 + x165 + x167 + x170 + x176 + x188 + x194
       + x276 + x281 + x332 + x345 >= 1
 c148: x13 + x47 + x69 + x96 + x97 + x112 + x118 + x129 + x156 + x163 + x168
       + x177 + x192 + x206 + x221 + x226 + x245 >= 1
 c149: x16 + x27 + x29 + x80 + x131 + x178 + x204 + x256 + x267 >= 1
 c150: x3 + x36 + x42 + x105 + x125 + x134 + x143 + x144 + x148 + x162 + x188
       + x191 + x224 + x235 + x237 + x332 + x357 >= 1
 c151: x5 + x25 + x47 + x60 + x71 + x174 + x185 + x189 + x201 + x313 >= 1
 c152: x7 + x11 + x12 + x26 + x29 + x88 + x102 + x117 + x170 + x189 + x204
       + x208 + x276 >= 1
 c153: x1 + x6 + x31 + x34 + x37 + x62 + x82 + x96 + x132 + x137 + x145 + x162
       + x168 + x239 + x250 + x274 + x276 + x278 >= 1
 c154: x12 + x27 + x38 + x52 + x73 + x111 + x159 + x188 + x197 + x217 + x218
       + x232 + x250 + x275 >= 1
 c155: x23 + x42 + x51 + x61 + x83 + x96 + x98 + x102 + x104 + x127 + x140
       + x161 + x162 + x173 >= 1
 c156: x6 + x7 + x35 + x42 + x54 + x69 + x74 + x86 + x141 + x151 + x170 + x200
       + x236 + x251 + x255 + x279 + x319 >= 1
 c157: x3 + x9 + x17 + x36 + x48 + x121 + x133 + x145 + x195 + x210 + x216
       + x231 + x234 + x276 + x278 + x313 >= 1
 c158: x70 + x82 + x83 + x137 + x144 + x185 + x201 + x217 + x218 + x256 + x290
       + x291 + x301 + x334 >= 1
 c159: x1 + x16 + x37 + x190 + x225 + x241 + x256 + x278 + x357 >= 1
 c160: x145 + x157 + x165 + x207 + x211 + x214 + x221 + x252 + x292 + x330
       + x345 + x347 + x355 + x389 >= 1
 c161: x23 + x37 + x38 + x71 + x100 + x189 + x192 + x208 + x242 + x244 + x252
       + x292 >= 1
 c162: x11 + x33 + x74 + x152 + x155 + x167 + x172 + x196 + x236 + x241 >= 1
 c163: x3 + x6 + x12 + x97 + x145 + x163 + x187 + x228 + x241 + x275 + x276
       + x347 >= 1
 c164: x5 + x34 + x63 + x119 + x125 + x137 + x141 + x142 + x161 + x173 + x204
       + x357 >= 1
 c165: x31 + x61 + x64 + x65 + x78 + x105 + x139 + x192 + x202 + x207 + x225
       + x229 + x319 + x345 >= 1
 c166: x11 + x24 + x33 + x45 + x74 + x121 + x146 + x200 + x227 >= 1
 c167: x4 + x41 + x50 + x51 + x121 + x132 + x139 + x164 + x203 + x217 + x222
       + x224 + x256 >= 1
 c168: x3 + x27 + x72 + x89 + x124 + x160 + x196 >= 1
 c169: x6 + x12 + x20 + x32 + x56 + x61 + x68 + x71 + x82 + x89 + x134 + x209
       + x217 + x322 >= 1
 c170: x8 + x22 + x47 + x74 + x79 + x98 + x118 + x125 + x139 + x150 + x170
       + x222 + x250 >= 1
 c171: x60 + x71 + x72 + x79 + x88 + x89 + x120 + x127 + x161 + x172 + x202
       >= 1
 c172: x39 + x42 + x53 + x63 + x66 + x113 + x134 + x164 + x169 + x267 >= 1
 c173: x21 + x37 + x39 + x78 + x96 + x109 + x123 + x135 + x139 + x149 + x227
       + x255 + x390 >= 1
 c174: x5 + x6 + x7 + x32 + x48 + x67 + x72 + x123 + x134 + x145 + x164 + x165
       + x193 + x196 + x209 + x211 + x256 >= 1
 c175: x3 + x56 + x66 + x86 + x88 + x125 + x133 + x141 + x152 + x185 + x189
       + x195 + x205 + x291 >= 1
 c176: x19 + x104 + x123 + x189 + x224 + x225 + x276 + x301 + x320 + x355 >= 1
 c177: x5 + x17 + x71 + x127 + x165 + x167 + x196 + x254 + x291 + x332 + x390
       >= 1
 c178: x18 + x20 + x42 + x62 + x69 + x95 + x155 + x174 + x185 + x204 + x212
       + x250 + x276 + x290 >= 1
 c179: x40 + x53 + x98 + x123 + x157 + x159 + x161 + x164 + x191 + x193 + x217
       + x222 + x224 + x227 + x250 + x279 + x347 >= 1
 c180: x35 + x108 + x123 + x138 + x163 + x176 + x189 + x197 + x246 + x275 >= 1
 c181: x18 + x20 + x33 + x43 + x75 + x86 + x99 + x117 + x137 + x145 + x149
       + x175 + x181 + x219 + x255 + x274 + x281 >= 1
 c182: x1 + x5 + x38 + x41 + x70 + x80 + x102 + x123 + x191 + x218 >= 1
 c183: x67 + x69 + x83 + x84 + x110 + x167 + x199 + x275 + x291 >= 1
 c184: x1 + x10 + x13 + x29 + x47 + x57 + x99 + x107 + x127 + x143 + x146
       + x211 + x231 + x249 + x254 + x274 >= 1
 c185: x4 + x24 + x66 + x115 + x143 + x160 + x172 + x206 + x232 + x236 + x249
       + x357 >= 1
 c186: x66 + x110 + x112 + x134 + x139 + x163 + x164 + x172 + x197 + x222
       + x275 >= 1
 c187: x2 + x18 + x45 + x61 + x81 + x142 + x151 + x155 + x162 + x187 + x218
       + x249 + x290 + x319 + x357 >= 1
 c188: x22 + x32 + x57 + x68 + x71 + x73 + x88 + x104 + x125 + x163 + x178
       + x187 + x274 + x276 + x278 + x330 >= 1
 c189: x15 + x46 + x62 + x64 + x77 + x82 + x151 + x178 + x187 + x210 + x228
       + x301 + x319 >= 1
 c190: x12 + x34 + x36 + x64 + x82 + x87 + x103 + x113 + x119 + x125 + x139
       + x175 + x206 + x217 + x319 + x320 + x347 >= 1
 c191: x18 + x29 + x37 + x45 + x50 + x52 + x79 + x133 + x162 + x249 + x290
       + x320 >= 1
 c192: x1 + x74 + x144 + x162 + x167 + x188 + x190 + x242 + x330 >= 1
 c193: x33 + x40 + x170 + x222 + x237 + x256 + x330 >= 1
 c194: x10 + x41 + x84 + x98 + x136 + x157 + x184 + x227 + x245 + x251 + x267
       + x274 + x275 >= 1
 c195: x24 + x51 + x54 + x61 + x67 + x69 + x117 + x121 + x128 + x162 + x170
       + x193 + x242 + x251 >= 1
 c196: x58 + x60 + x68 + x72 + x77 + x95 + x100 + x101 + x102 + x110 + x137
       + x166 + x183 + x274 + x281 >= 1
 c197: x67 + x71 + x90 + x132 + x148 + x191 + x203 >= 1
 c198: x3 + x7 + x8 + x16 + x17 + x31 + x33 + x53 + x102 + x147 + x244 + x292
       + x322 >= 1
 c199: x55 + x78 + x80 + x126 + x128 + x130 + x151 + x179 + x182 + x183 + x189
       + x217 + x239 + x246 + x263 + x279 + x301 >= 1
 c200: x10 + x13 + x30 + x35 + x45 + x78 + x90 + x100 + x114 + x124 + x147
       + x173 + x234 + x237 + x262 + x292 >= 1
 c201: x3 + x12 + x76 + x95 + x107 + x132 + x242 + x390 >= 1
 c202: x29 + x34 + x39 + x65 + x124 + x149 + x168 + x174 + x189 + x319 + x334
       + x347 >= 1
 c203: x31 + x41 + x76 + x106 + x119 + x124 + x195 + x330 + x347 >= 1
 c204: x30 + x36 + x108 + x122 + x151 + x161 + x183 + x196 + x202 + x236 + x244
       + x251 + x279 + x390 >= 1
 c205: x1 + x24 + x38 + x43 + x45 + x62 + x67 + x115 + x168 + x192 + x225
       + x334 >= 1
 c206: x15 + x16 + x46 + x52 + x105 + x127 + x129 + x142 + x175 + x193 + x228
       + x239 >= 1
 c207: x14 + x25 + x27 + x38 + x55 + x67 + x77 + x79 + x84 + x135 + x141 + x150
       + x240 + x249 >= 1
 c208: x105 + x122 + x123 + x126 + x132 + x135 + x153 + x210 + x246 + x252
       + x281 + x332 + x355 >= 1
 c209: x44 + x72 + x82 + x116 + x168 + x169 + x188 + x195 + x196 + x207 + x231
       + x249 >= 1
 c210: x12 + x36 + x84 + x85 + x92 + x94 + x123 + x129 + x132 + x140 + x190
       + x221 + x225 + x239 >= 1
 c211: x8 + x42 + x58 + x65 + x85 + x138 + x145 + x163 + x193 + x231 + x390
       >= 1
 c212: x1 + x9 + x101 + x111 + x122 + x162 + x192 + x229 + x278 >= 1
 c213: x9 + x20 + x25 + x48 + x107 + x122 + x246 + x254 + x357 >= 1
 c214: x8 + x39 + x49 + x60 + x69 + x78 + x113 + x127 + x134 + x135 + x161
       + x174 + x209 + x225 + x278 >= 1
 c215: x65 + x67 + x126 + x130 + x144 + x161 + x164 + x183 + x191 + x216 >= 1
 c216: x48 + x73 + x96 + x98 + x103 + x104 + x109 + x125 + x136 + x146 + x151
       + x152 + x156 + x182 + x201 + x218 + x330 >= 1
 c217: x42 + x49 + x62 + x77 + x85 + x91 + x96 + x115 + x120 + x126 + x132
       + x164 + x178 + x210 + x301 + x334 >= 1
 c218: x2 + x30 + x38 + x40 + x45 + x65 + x86 + x109 + x119 + x154 + x167
       + x181 + x229 + x235 + x278 >= 1
 c219: x9 + x23 + x27 + x72 + x132 + x137 + x179 + x199 + x218 + x357 >= 1
 c220: x13 + x65 + x125 + x153 + x162 + x176 + x184 + x221 + x229 + x281 >= 1
 c221: x16 + x22 + x43 + x67 + x70 + x92 + x112 + x116 + x187 + x251 + x275
       >= 1
 c222: x15 + x34 + x38 + x49 + x59 + x62 + x69 + x75 + x78 + x95 + x125 + x142
       + x169 + x174 + x176 + x187 + x192 + x197 + x229 + x292 + x345 >= 1
 c223: x6 + x15 + x28 + x40 + x60 + x99 + x144 + x157 + x169 + x171 + x237
       + x276 + x279 + x332 >= 1
 c224: x12 + x43 + x48 + x52 + x60 + x140 + x146 + x164 + x188 + x193 >= 1
 c225: x1 + x3 + x10 + x13 + x18 + x48 + x74 + x76 + x87 + x92 + x138 + x171
       + x221 >= 1
 c226: x7 + x20 + x33 + x47 + x80 + x88 + x118 + x134 + x137 + x152 + x164
       + x172 + x180 + x250 + x251 + x255 + x390 >= 1
 c227: x3 + x50 + x62 + x67 + x109 + x124 + x136 + x188 + x197 + x199 + x201
       + x355 >= 1
 c228: x24 + x36 + x44 + x85 + x100 + x115 + x159 + x172 + x227 + x252 + x281
       >= 1
 c229: x49 + x79 + x89 + x117 + x145 + x175 + x181 + x199 + x221 + x225 + x320
       + x322 >= 1
 c230: x2 + x9 + x15 + x51 + x70 + x119 + x126 + x146 + x178 + x191 + x193
       + x232 + x322 >= 1
 c231: x28 + x85 + x152 + x153 + x163 + x172 + x176 + x239 >= 1
 c232: x12 + x39 + x52 + x59 + x68 + x80 + x82 + x104 + x147 + x153 + x157
       + x206 + x256 + x292 + x389 >= 1
 c233: x3 + x8 + x42 + x53 + x81 + x99 + x121 + x122 + x124 + x173 + x175
       + x226 + x234 >= 1
 c234: x23 + x35 + x85 + x86 + x112 + x113 + x121 + x131 + x147 + x150 + x152
       + x154 + x217 + x254 >= 1
 c235: x9 + x11 + x48 + x53 + x60 + x97 + x103 + x132 + x144 + x147 + x169
       + x199 + x200 + x234 + x291 >= 1
 c236: x22 + x57 + x60 + x71 + x75 + x94 + x149 + x171 + x234 + x278 + x319
       + x345 + x389 >= 1
 c237: x1 + x15 + x83 + x91 + x95 + x99 + x112 + x120 + x158 + x162 + x166
       + x181 + x207 >= 1
 c238: x6 + x44 + x58 + x61 + x89 + x93 + x98 + x135 + x143 + x150 + x157
       + x161 + x219 + x252 >= 1
 c239: x36 + x52 + x62 + x63 + x69 + x104 + x115 + x136 + x160 + x162 + x355
       >= 1
 c240: x7 + x23 + x51 + x113 + x136 + x139 + x166 + x281 >= 1
 c241: x112 + x128 + x132 + x231 + x235 + x274 + x276 + x319 + x322 + x334 >= 1
 c242: x3 + x25 + x73 + x124 + x134 + x163 + x168 + x176 + x187 + x244 + x322
       + x347 >= 1
 c243: x4 + x85 + x110 + x119 + x130 + x137 + x154 + x177 + x182 + x186 + x210
       + x226 + x239 + x278 + x281 + x345 + x389 >= 1
 c244: x3 + x49 + x51 + x60 + x70 + x91 + x95 + x102 + x126 + x128 + x161
       + x162 + x163 + x194 + x211 + x236 + x246 + x390 >= 1
 c245: x9 + x21 + x122 + x129 + x135 + x137 + x154 + x161 + x184 + x225 + x274
       >= 1
 c246: x6 + x12 + x34 + x36 + x46 + x63 + x77 + x123 + x125 + x128 + x140
       + x176 + x228 + x236 + x313 + x390 >= 1
 c247: x15 + x16 + x40 + x41 + x43 + x92 + x103 + x121 + x130 + x138 + x148
       + x189 + x214 + x330 + x389 >= 1
 c248: x5 + x21 + x22 + x34 + x51 + x72 + x102 + x110 + x145 + x177 + x186
       + x190 + x195 + x225 + x322 + x345 >= 1
 c249: x7 + x47 + x87 + x113 + x124 + x152 + x166 + x239 + x254 + x330 + x390
       >= 1
 c250: x13 + x14 + x17 + x72 + x79 + x86 + x98 + x163 + x169 + x183 + x193
       + x200 + x201 + x319 + x355 >= 1
 c251: x5 + x49 + x56 + x59 + x60 + x68 + x76 + x89 + x101 + x108 + x137 + x164
       + x177 + x183 + x185 + x187 + x222 + x231 + x237 >= 1
 c252: x77 + x126 + x129 + x133 + x140 + x144 + x193 + x201 + x205 + x246
       + x251 + x255 + x281 + x332 + x389 >= 1
 c253: x9 + x13 + x106 + x131 + x173 + x181 + x183 + x263 + x276 + x319 + x389
       >= 1
 c254: x1 + x9 + x21 + x84 + x97 + x112 + x116 + x126 + x147 + x149 + x155
       + x160 + x182 + x186 + x189 + x250 >= 1
 c255: x8 + x38 + x96 + x100 + x118 + x129 + x143 + x162 + x182 + x184 + x192
       + x193 + x205 + x207 + x222 + x249 + x251 + x252 + x281 + x347 >= 1
 c256: x47 + x48 + x127 + x133 + x176 + x195 + x228 + x231 + x252 + x263 + x267
       + x279 + x291 >= 1
 c257: x30 + x46 + x60 + x73 + x92 + x97 + x98 + x124 + x184 + x194 + x227
       + x244 + x249 + x275 + x390 >= 1
 c258: x3 + x20 + x24 + x33 + x36 + x50 + x57 + x67 + x69 + x72 + x73 + x87
       + x116 + x117 + x161 + x166 + x188 + x212 + x279 + x313 + x322 >= 1
 c259: x1 + x53 + x60 + x64 + x66 + x77 + x92 + x104 + x117 + x124 + x143
       + x197 + x228 + x240 >= 1
 c260: x24 + x46 + x68 + x76 + x82 + x93 + x94 + x102 + x111 + x116 + x131
       + x135 + x154 + x157 + x195 + x201 + x229 + x232 + x240 + x254 + x357
       >= 1
 c261: x23 + x73 + x88 + x91 + x130 + x147 + x150 + x179 + x189 + x197 + x208
       + x226 >= 1
 c262: x36 + x69 + x78 + x83 + x102 + x110 + x136 + x174 + x202 + x217 >= 1
 c263: x33 + x34 + x43 + x45 + x50 + x74 + x95 + x124 + x171 + x174 + x190
       + x192 + x200 + x203 + x209 + x229 + x255 + x262 >= 1
 c264: x64 + x70 + x79 + x88 + x109 + x118 + x122 + x128 + x167 + x231 + x234
       + x263 + x274 >= 1
 c265: x19 + x30 + x60 + x73 + x77 + x119 + x156 + x161 + x168 + x169 + x173
       + x219 + x254 >= 1
 c266: x11 + x24 + x64 + x83 + x88 + x112 + x131 + x154 + x180 + x191 + x207
       + x218 + x256 + x313 + x357 >= 1
 c267: x4 + x8 + x19 + x71 + x81 + x108 + x143 + x159 + x184 + x190 + x222
       + x252 + x389 >= 1
 c268: x72 + x74 + x100 + x101 + x141 + x189 + x209 + x217 + x242 + x245 + x254
       + x262 + x290 >= 1
 c269: x4 + x27 + x36 + x70 + x80 + x81 + x96 + x99 + x123 + x126 + x142 + x279
       + x313 + x332 >= 1
 c270: x1 + x26 + x33 + x68 + x77 + x93 + x126 + x135 + x158 + x167 + x171
       + x186 + x235 + x256 + x322 >= 1
 c271: x1 + x8 + x22 + x39 + x56 + x65 + x73 + x82 + x95 + x126 + x131 + x132
       + x151 + x158 + x162 + x163 + x179 + x183 + x184 + x208 + x252 >= 1
 c272: x39 + x52 + x62 + x74 + x111 + x118 + x129 + x134 + x161 + x179 + x232
       >= 1
 c273: x1 + x6 + x10 + x50 + x64 + x87 + x95 + x97 + x135 + x144 + x168 + x183
       + x196 + x206 + x218 + x242 + x254 + x255 + x390 >= 1
 c274: x18 + x41 + x42 + x54 + x121 + x186 + x194 + x209 + x240 + x390 >= 1
 c275: x14 + x38 + x48 + x96 + x100 + x125 + x137 + x166 + x175 + x193 + x227
       + x234 + x250 + x292 >= 1
 c276: x34 + x40 + x66 + x93 + x97 + x105 + x122 + x130 + x221 + x250 + x281
       >= 1
 c277: x4 + x17 + x66 + x92 + x93 + x97 + x131 + x199 + x204 + x209 + x225
       + x231 >= 1
 c278: x2 + x14 + x63 + x120 + x134 + x143 + x189 + x192 + x275 + x292 >= 1
 c279: x2 + x35 + x37 + x46 + x131 + x219 >= 1
 c280: x21 + x22 + x26 + x65 + x89 + x91 + x93 + x100 + x111 + x117 + x147
       + x172 + x174 + x181 + x231 >= 1
 c281: x13 + x18 + x46 + x70 + x91 + x162 + x164 + x173 + x188 + x199 + x256
       >= 1
 c282: x19 + x43 + x47 + x71 + x113 + x123 + x140 + x158 + x168 + x190 + x226
       + x245 + x254 + x267 >= 1
 c283: x20 + x57 + x86 + x110 + x122 + x146 + x154 + x165 + x210 + x224 + x229
       + x281 + x290 + x320 >= 1
 c284: x69 + x80 + x143 + x165 + x166 + x169 + x179 + x180 + x188 + x194 + x216
       + x275 + x322 >= 1
 c285: x2 + x8 + x16 + x22 + x23 + x30 + x50 + x70 + x72 + x88 + x105 + x106
       + x120 + x152 + x153 + x191 + x199 + x201 + x211 + x235 + x254 + x274
       + x322 >= 1
 c286: x1 + x28 + x92 + x119 + x121 + x134 + x177 + x256 + x263 + x281 >= 1
 c287: x22 + x27 + x53 + x58 + x63 + x119 + x125 + x127 + x143 + x149 + x156
       + x197 + x221 + x222 + x274 >= 1
 c288: x2 + x8 + x9 + x20 + x26 + x61 + x100 + x112 + x156 + x161 + x170 + x189
       + x231 + x278 >= 1
 c289: x58 + x73 + x95 + x109 + x138 + x168 + x172 + x181 + x205 + x234 + x241
       + x249 + x278 + x291 + x313 + x357 >= 1
 c290: x11 + x42 + x57 + x60 + x67 + x90 + x119 + x159 + x160 + x165 + x170
       + x171 + x180 + x188 + x196 + x227 + x251 + x256 + x389 >= 1
 c291: x51 + x100 + x104 + x173 + x180 + x221 >= 1
 c292: x38 + x59 + x115 + x130 + x149 + x188 + x200 + x202 + x232 + x249 + x262
       + x291 + x332 + x357 + x389 >= 1
 c293: x37 + x48 + x52 + x54 + x61 + x108 + x110 + x129 + x150 + x175 + x182
       + x191 + x250 >= 1
 c294: x6 + x11 + x42 + x76 + x102 + x135 + x155 + x166 + x172 + x187 + x206
       + x208 + x212 + x226 + x249 + x256 + x267 + x301 + x320 >= 1
 c295: x11 + x16 + x62 + x68 + x78 + x111 + x120 + x159 + x185 + x226 + x235
       + x249 + x276 + x355 >= 1
 c296: x19 + x65 + x67 + x72 + x84 + x96 + x133 + x150 + x195 + x237 + x320
       >= 1
 c297: x47 + x64 + x69 + x103 + x159 + x217 + x224 + x251 + x313 >= 1
 c298: x75 + x96 + x97 + x120 + x136 + x141 + x165 + x174 + x191 + x200 + x201
       + x214 + x281 >= 1
 c299: x2 + x41 + x42 + x105 + x123 + x165 + x188 + x199 + x200 + x205 + x276
       + x320 + x345 >= 1
 c300: x8 + x62 + x64 + x79 + x87 + x111 + x139 + x161 + x163 + x164 + x172
       + x205 + x239 + x240 + x252 + x267 >= 1
Bounds
 0 <= x1 <= 1
 0 <= x2 <= 1
 0 <= x3 <= 1
 0 <= x4 <= 1
 0 <= x5 <= 1
 0 <= x6 <= 1
 0 <= x7 <= 1
 0 <= x8 <= 1
 0 <= x9 <= 1
 0 <= x10 <= 1
 0 <= x11 <= 1
 0 <= x12 <= 1
 0 <= x13 <= 1
 0 <= x14 <= 1
 0 <= x15 <= 1
 0 <= x16 <= 1
 0 <= x17 <= 1
 0 <= x18 <= 1
 0 <= x19 <= 1
 0 <= x20 <= 1
 0 <= x21 <= 1
 0 <= x22 <= 1
 0 <= x23 <= 1
 0 <= x24 <= 1
 0 <= x25 <= 1
 0 <= x26 <= 1
 0 <= x27 <= 1
 0 <= x28 <= 1
 0 <= x29 <= 1
 0 <= x30 <= 1
 0 <= x31 <= 1
 0 <= x32 <= 1
 0 <= x33 <= 1
 0 <= x34 <= 1
 0 <= x35 <= 1
 0 <= x36 <= 1
 0 <= x37 <= 1
 0 <= x38 <= 1
 0 <= x39 <= 1
 0 <= x40 <= 1
 0 <= x41 <= 1
 0 <= x42 <= 1
 0 <= x43 <= 1
 0 <= x44 <= 1
 0 <= x45 <= 1
 0 <= x46 <= 1
 0 <= x47 <= 1
 0 <= x48 <= 1
 0 <= x49 <= 1
 0 <= x50 <= 1
 0 <= x51 <= 1
 0 <= x52 <= 1
 0 <= x53 <= 1
 0 <= x54 <= 1
 0 <= x55 <= 1
 0 <= x56 <= 1
 0 <= x57 <= 1
 0 <= x58 <= 1
 0 <= x59 <= 1
 0 <= x60 <= 1
 0 <= x61 <= 1
 0 <= x62 <= 1
 0 <= x63 <= 1
 0 <= x64 <= 1
 0 <= x65 <= 1
 0 <= x66 <= 1
 0 <= x67 <= 1
 0 <= x68 <= 1
 0 <= x69 <= 1
 0 <= x70 <= 1
 0 <= x71 <= 1
 0 <= x72 <= 1
 0 <= x73 <= 1
 0 <= x74 <= 1
 0 <= x75 <= 1
 0 <= x76 <= 1
 0 <= x77 <= 1
 0 <= x78 <= 1
 0 <= x79 <= 1
 0 <= x80 <= 1
 0 <= x81 <= 1
 0 <= x82 <= 1
 0 <= x83 <= 1
 0 <= x84 <= 1
 0 <= x85 <= 1
 0 <= x86 <= 1
 0 <= x87 <= 1
 0 <= x88 <= 1
 0 <= x89 <= 1
 0 <= x90 <= 1
 0 <= x91 <= 1
 0 <= x92 <= 1
 0 <= x93 <= 1
 0 <= x94 <= 1
 0 <= x95 <= 1
 0 <= x96 <= 1
 0 <= x97 <= 1
 0 <= x98 <= 1
 0 <= x99 <= 1
 0 <= x100 <= 1
 0 <= x101 <= 1
 0 <= x102 <= 1
 0 <= x103 <= 1
 0 <= x104 <= 1
 0 <= x105 <= 1
 0 <= x106 <= 1
 0 <= x107 <= 1
 0 <= x108 <= 1
 0 <= x109 <= 1
 0 <= x110 <= 1
 0 <= x111 <= 1
 0 <= x112 <= 1
 0 <= x113 <= 1
 0 <= x114 <= 1
 0 <= x115 <= 1
 0 <= x116 <= 1
 0 <= x117 <= 1
 0 <= x118 <= 1
 0 <= x119 <= 1
 0 <= x120 <= 1
 0 <= x121 <= 1
 0 <= x122 <= 1
 0 <= x123 <= 1
 0 <= x124 <= 1
 0 <= x125 <= 1
 0 <= x126 <= 1
 0 <= x127 <= 1
 0 <= x128 <= 1
 0 <= x129 <= 1
 0 <= x130 <= 1
 0 <= x131 <= 1
 0 <= x132 <= 1
 0 <= x133 <= 1
 0 <= x134 <= 1
 0 <= x135 <= 1
 0 <= x136 <= 1
 0 <= x137 <= 1
 0 <= x138 <= 1
 0 <= x139 <= 1
 0 <= x140 <= 1
 0 <= x141 <= 1
 0 <= x142 <= 1
 0 <= x143 <= 1
 0 <= x144 <= 1
 0 <= x145 <= 1
 0 <= x146 <= 1
 0 <= x147 <= 1
 0 <= x148 <= 1
 0 <= x149 <= 1
 0 <= x150 <= 1
 0 <= x151 <= 1
 0 <= x152 <= 1
 0 <= x153 <= 1
 0 <= x154 <= 1
 0 <= x155 <= 1
 0 <= x156 <= 1
 0 <= x157 <= 1
 0 <= x158 <= 1
 0 <= x159 <= 1
 0 <= x160 <= 1
 0 <= x161 <= 1
 0 <= x162 <= 1
 0 <= x163 <= 1
 0 <= x164 <= 1
 0 <= x165 <= 1
 0 <= x166 <= 1
 0 <= x167 <= 1
 0 <= x168 <= 1
 0 <= x169 <= 1
 0 <= x170 <= 1
 0 <= x171 <= 1
 0 <= x172 <= 1
 0 <= x173 <= 1
 0 <= x174 <= 1
 0 <= x175 <= 1
 0 <= x176 <= 1
 0 <= x177 <= 1
 0 <= x178 <= 1
 0 <= x179 <= 1
 0 <= x180 <= 1
 0 <= x181 <= 1
 0 <= x182 <= 1
 0 <= x183 <= 1
 0 <= x184 <= 1
 0 <= x185 <= 1
 0 <= x186 <= 1
 0 <= x187 <= 1
 0 <= x188 <= 1
 0 <= x189 <= 1
 0 <= x190 <= 1
 0 <= x191 <= 1
 0 <= x192 <= 1
 0 <= x193 <= 1
 0 <= x194 <= 1
 0 <= x195 <= 1
 0 <= x196 <= 1
 0 <= x197 <= 1
 0 <= x199 <= 1
 0 <= x200 <= 1
 0 <= x201 <= 1
 0 <= x202 <= 1
 0 <= x203 <= 1
 0 <= x204 <= 1
 0 <= x205 <= 1
 0 <= x206 <= 1
 0 <= x207 <= 1
 0 <= x208 <= 1
 0 <= x209 <= 1
 0 <= x210 <= 1
 0 <= x211 <= 1
 0 <= x212 <= 1
 0 <= x214 <= 1
 0 <= x216 <= 1
 0 <= x217 <= 1
 0 <= x218 <= 1
 0 <= x219 <= 1
 0 <= x221 <= 1
 0 <= x222 <= 1
 0 <= x224 <= 1
 0 <= x225 <= 1
 0 <= x226 <= 1
 0 <= x227 <= 1
 0 <= x228 <= 1
 0 <= x229 <= 1
 0 <= x231 <= 1
 0 <= x232 <= 1
 0 <= x234 <= 1
 0 <= x235 <= 1
 0 <= x236 <= 1
 0 <= x237 <= 1
 0 <= x239 <= 1
 0 <= x240 <= 1
 0 <= x241 <= 1
 0 <= x242 <= 1
 0 <= x244 <= 1
 0 <= x245 <= 1
 0 <= x246 <= 1
 0 <= x249 <= 1
 0 <= x250 <= 1
 0 <= x251 <= 1
 0 <= x252 <= 1
 0 <= x254 <= 1
 0 <= x255 <= 1
 0 <= x256 <= 1
 0 <= x262 <= 1
 0 <= x263 <= 1
 0 <= x267 <= 1
 0 <= x274 <= 1
 0 <= x275 <= 1
 0 <= x276 <= 1
 0 <= x278 <= 1
 0 <= x279 <= 1
 0 <= x281 <= 1
 0 <= x290 <= 1
 0 <= x291 <= 1
 0 <= x292 <= 1
 0 <= x301 <= 1
 0 <= x313 <= 1
 0 <= x319 <= 1
 0 <= x320 <= 1
 0 <= x322 <= 1
 0 <= x330 <= 1
 0 <= x332 <= 1
 0 <= x334 <= 1
 0 <= x345 <= 1
 0 <= x347 <= 1
 0 <= x355 <= 1
 0 <= x357 <= 1
 0 <= x389 <= 1
 0 <= x390 <= 1
Binaries
 x1  x2  x3  x4  x5  x6  x7  x8  x9  x10  x11  x12  x13  x14  x15  x16  x17 
 x18  x19  x20  x21  x22  x23  x24  x25  x26  x27  x28  x29  x30  x31  x32 
 x33  x34  x35  x36  x37  x38  x39  x40  x41  x42  x43  x44  x45  x46  x47 
 x48  x49  x50  x51  x52  x53  x54  x55  x56  x57  x58  x59  x60  x61  x62 
 x63  x64  x65  x66  x67  x68  x69  x70  x71  x72  x73  x74  x75  x76  x77 
 x78  x79  x80  x81  x82  x83  x84  x85  x86  x87  x88  x89  x90  x91  x92 
 x93  x94  x95  x96  x97  x98  x99  x100  x101  x102  x103  x104  x105  x106 
 x107  x108  x109  x110  x111  x112  x113  x114  x115  x116  x117  x118  x119 
 x120  x121  x122  x123  x124  x125  x126  x127  x128  x129  x130  x131  x132 
 x133  x134  x135  x136  x137  x138  x139  x140  x141  x142  x143  x144  x145 
 x146  x147  x148  x149  x150  x151  x152  x153  x154  x155  x156  x157  x158 
 x159  x160  x161  x162  x163  x164  x165  x166  x167  x168  x169  x170  x171 
 x172  x173  x174  x175  x176  x177  x178  x179  x180  x181  x182  x183  x184 
 x185  x186  x187  x188  x189  x190  x191  x192  x193  x194  x195  x196  x197 
 x199  x200  x201  x202  x203  x204  x205  x206  x207  x208  x209  x210  x211 
 x212  x214  x216  x217  x218  x219  x221  x222  x224  x225  x226  x227  x228 
 x229  x231  x232  x234  x235  x236  x237  x239  x240  x241  x242  x244  x245 
 x246  x249  x250  x251  x252  x254  x255  x256  x262  x263  x267  x274  x275 
 x276  x278  x279  x281  x290  x291  x292  x301  x313  x319  x320  x322  x330 
 x332  x334  x345  x347  x355  x357  x389  x390 
End
